(set-logic QF_LRA)
(declare-fun X0 () Real )
(declare-fun Y0 () Real )
(declare-fun X1 () Real )
(declare-fun Y1 () Real )
(declare-fun X2 () Real )
(declare-fun Y2 () Real )
(declare-fun X3 () Real )
(declare-fun Y3 () Real )
(declare-fun X4 () Real )
(declare-fun Y4 () Real )
(declare-fun X5 () Real )
(declare-fun Y5 () Real )
(declare-fun X6 () Real )
(declare-fun Y6 () Real )
(declare-fun X7 () Real )
(declare-fun Y7 () Real )
(declare-fun X8 () Real )
(declare-fun Y8 () Real )
(declare-fun X9 () Real )
(declare-fun Y9 () Real )
(declare-fun X10 () Real )
(declare-fun Y10 () Real )
(declare-fun X11 () Real )
(declare-fun Y11 () Real )
(declare-fun X12 () Real )
(declare-fun Y12 () Real )
(declare-fun X13 () Real )
(declare-fun Y13 () Real )
(declare-fun X14 () Real )
(declare-fun Y14 () Real )
(declare-fun X15 () Real )
(declare-fun Y15 () Real )
(declare-fun X16 () Real )
(declare-fun Y16 () Real )
(declare-fun X17 () Real )
(declare-fun Y17 () Real )
(declare-fun Z () Real )
(declare-fun k () Real )
(assert (let
(( $goal (>= Z k) ))
(let
((
$phi ( and 
( or ( <= ( + X0 79 ) X1 )  ( <= ( + X1 35 ) X0 )  ( <= ( + Y0 77 ) Y1 )  ( <= ( + Y1 43 ) Y0 )  )
( or ( <= ( + X0 79 ) X2 )  ( <= ( + X2 85 ) X0 )  ( <= ( + Y0 77 ) Y2 )  ( <= ( + Y2 91 ) Y0 )  )
( or ( <= ( + X0 79 ) X3 )  ( <= ( + X3 70 ) X0 )  ( <= ( + Y0 77 ) Y3 )  ( <= ( + Y3 40 ) Y0 )  )
( or ( <= ( + X0 79 ) X4 )  ( <= ( + X4 57 ) X0 )  ( <= ( + Y0 77 ) Y4 )  ( <= ( + Y4 60 ) Y0 )  )
( or ( <= ( + X0 79 ) X5 )  ( <= ( + X5 60 ) X0 )  ( <= ( + Y0 77 ) Y5 )  ( <= ( + Y5 88 ) Y0 )  )
( or ( <= ( + X0 79 ) X6 )  ( <= ( + X6 27 ) X0 )  ( <= ( + Y0 77 ) Y6 )  ( <= ( + Y6 56 ) Y0 )  )
( or ( <= ( + X0 79 ) X7 )  ( <= ( + X7 99 ) X0 )  ( <= ( + Y0 77 ) Y7 )  ( <= ( + Y7 11 ) Y0 )  )
( or ( <= ( + X0 79 ) X8 )  ( <= ( + X8 70 ) X0 )  ( <= ( + Y0 77 ) Y8 )  ( <= ( + Y8 30 ) Y0 )  )
( or ( <= ( + X0 79 ) X9 )  ( <= ( + X9 51 ) X0 )  ( <= ( + Y0 77 ) Y9 )  ( <= ( + Y9 35 ) Y0 )  )
( or ( <= ( + X0 79 ) X10 )  ( <= ( + X10 95 ) X0 )  ( <= ( + Y0 77 ) Y10 )  ( <= ( + Y10 79 ) Y0 )  )
( or ( <= ( + X0 79 ) X11 )  ( <= ( + X11 51 ) X0 )  ( <= ( + Y0 77 ) Y11 )  ( <= ( + Y11 52 ) Y0 )  )
( or ( <= ( + X0 79 ) X12 )  ( <= ( + X12 98 ) X0 )  ( <= ( + Y0 77 ) Y12 )  ( <= ( + Y12 48 ) Y0 )  )
( or ( <= ( + X0 79 ) X13 )  ( <= ( + X13 28 ) X0 )  ( <= ( + Y0 77 ) Y13 )  ( <= ( + Y13 9 ) Y0 )  )
( or ( <= ( + X0 79 ) X14 )  ( <= ( + X14 23 ) X0 )  ( <= ( + Y0 77 ) Y14 )  ( <= ( + Y14 39 ) Y0 )  )
( or ( <= ( + X0 79 ) X15 )  ( <= ( + X15 54 ) X0 )  ( <= ( + Y0 77 ) Y15 )  ( <= ( + Y15 32 ) Y0 )  )
( or ( <= ( + X0 79 ) X16 )  ( <= ( + X16 93 ) X0 )  ( <= ( + Y0 77 ) Y16 )  ( <= ( + Y16 78 ) Y0 )  )
( or ( <= ( + X0 79 ) X17 )  ( <= ( + X17 8 ) X0 )  ( <= ( + Y0 77 ) Y17 )  ( <= ( + Y17 95 ) Y0 )  )
( or ( <= ( + X1 35 ) X2 )  ( <= ( + X2 85 ) X1 )  ( <= ( + Y1 43 ) Y2 )  ( <= ( + Y2 91 ) Y1 )  )
( or ( <= ( + X1 35 ) X3 )  ( <= ( + X3 70 ) X1 )  ( <= ( + Y1 43 ) Y3 )  ( <= ( + Y3 40 ) Y1 )  )
( or ( <= ( + X1 35 ) X4 )  ( <= ( + X4 57 ) X1 )  ( <= ( + Y1 43 ) Y4 )  ( <= ( + Y4 60 ) Y1 )  )
( or ( <= ( + X1 35 ) X5 )  ( <= ( + X5 60 ) X1 )  ( <= ( + Y1 43 ) Y5 )  ( <= ( + Y5 88 ) Y1 )  )
( or ( <= ( + X1 35 ) X6 )  ( <= ( + X6 27 ) X1 )  ( <= ( + Y1 43 ) Y6 )  ( <= ( + Y6 56 ) Y1 )  )
( or ( <= ( + X1 35 ) X7 )  ( <= ( + X7 99 ) X1 )  ( <= ( + Y1 43 ) Y7 )  ( <= ( + Y7 11 ) Y1 )  )
( or ( <= ( + X1 35 ) X8 )  ( <= ( + X8 70 ) X1 )  ( <= ( + Y1 43 ) Y8 )  ( <= ( + Y8 30 ) Y1 )  )
( or ( <= ( + X1 35 ) X9 )  ( <= ( + X9 51 ) X1 )  ( <= ( + Y1 43 ) Y9 )  ( <= ( + Y9 35 ) Y1 )  )
( or ( <= ( + X1 35 ) X10 )  ( <= ( + X10 95 ) X1 )  ( <= ( + Y1 43 ) Y10 )  ( <= ( + Y10 79 ) Y1 )  )
( or ( <= ( + X1 35 ) X11 )  ( <= ( + X11 51 ) X1 )  ( <= ( + Y1 43 ) Y11 )  ( <= ( + Y11 52 ) Y1 )  )
( or ( <= ( + X1 35 ) X12 )  ( <= ( + X12 98 ) X1 )  ( <= ( + Y1 43 ) Y12 )  ( <= ( + Y12 48 ) Y1 )  )
( or ( <= ( + X1 35 ) X13 )  ( <= ( + X13 28 ) X1 )  ( <= ( + Y1 43 ) Y13 )  ( <= ( + Y13 9 ) Y1 )  )
( or ( <= ( + X1 35 ) X14 )  ( <= ( + X14 23 ) X1 )  ( <= ( + Y1 43 ) Y14 )  ( <= ( + Y14 39 ) Y1 )  )
( or ( <= ( + X1 35 ) X15 )  ( <= ( + X15 54 ) X1 )  ( <= ( + Y1 43 ) Y15 )  ( <= ( + Y15 32 ) Y1 )  )
( or ( <= ( + X1 35 ) X16 )  ( <= ( + X16 93 ) X1 )  ( <= ( + Y1 43 ) Y16 )  ( <= ( + Y16 78 ) Y1 )  )
( or ( <= ( + X1 35 ) X17 )  ( <= ( + X17 8 ) X1 )  ( <= ( + Y1 43 ) Y17 )  ( <= ( + Y17 95 ) Y1 )  )
( or ( <= ( + X2 85 ) X3 )  ( <= ( + X3 70 ) X2 )  ( <= ( + Y2 91 ) Y3 )  ( <= ( + Y3 40 ) Y2 )  )
( or ( <= ( + X2 85 ) X4 )  ( <= ( + X4 57 ) X2 )  ( <= ( + Y2 91 ) Y4 )  ( <= ( + Y4 60 ) Y2 )  )
( or ( <= ( + X2 85 ) X5 )  ( <= ( + X5 60 ) X2 )  ( <= ( + Y2 91 ) Y5 )  ( <= ( + Y5 88 ) Y2 )  )
( or ( <= ( + X2 85 ) X6 )  ( <= ( + X6 27 ) X2 )  ( <= ( + Y2 91 ) Y6 )  ( <= ( + Y6 56 ) Y2 )  )
( or ( <= ( + X2 85 ) X7 )  ( <= ( + X7 99 ) X2 )  ( <= ( + Y2 91 ) Y7 )  ( <= ( + Y7 11 ) Y2 )  )
( or ( <= ( + X2 85 ) X8 )  ( <= ( + X8 70 ) X2 )  ( <= ( + Y2 91 ) Y8 )  ( <= ( + Y8 30 ) Y2 )  )
( or ( <= ( + X2 85 ) X9 )  ( <= ( + X9 51 ) X2 )  ( <= ( + Y2 91 ) Y9 )  ( <= ( + Y9 35 ) Y2 )  )
( or ( <= ( + X2 85 ) X10 )  ( <= ( + X10 95 ) X2 )  ( <= ( + Y2 91 ) Y10 )  ( <= ( + Y10 79 ) Y2 )  )
( or ( <= ( + X2 85 ) X11 )  ( <= ( + X11 51 ) X2 )  ( <= ( + Y2 91 ) Y11 )  ( <= ( + Y11 52 ) Y2 )  )
( or ( <= ( + X2 85 ) X12 )  ( <= ( + X12 98 ) X2 )  ( <= ( + Y2 91 ) Y12 )  ( <= ( + Y12 48 ) Y2 )  )
( or ( <= ( + X2 85 ) X13 )  ( <= ( + X13 28 ) X2 )  ( <= ( + Y2 91 ) Y13 )  ( <= ( + Y13 9 ) Y2 )  )
( or ( <= ( + X2 85 ) X14 )  ( <= ( + X14 23 ) X2 )  ( <= ( + Y2 91 ) Y14 )  ( <= ( + Y14 39 ) Y2 )  )
( or ( <= ( + X2 85 ) X15 )  ( <= ( + X15 54 ) X2 )  ( <= ( + Y2 91 ) Y15 )  ( <= ( + Y15 32 ) Y2 )  )
( or ( <= ( + X2 85 ) X16 )  ( <= ( + X16 93 ) X2 )  ( <= ( + Y2 91 ) Y16 )  ( <= ( + Y16 78 ) Y2 )  )
( or ( <= ( + X2 85 ) X17 )  ( <= ( + X17 8 ) X2 )  ( <= ( + Y2 91 ) Y17 )  ( <= ( + Y17 95 ) Y2 )  )
( or ( <= ( + X3 70 ) X4 )  ( <= ( + X4 57 ) X3 )  ( <= ( + Y3 40 ) Y4 )  ( <= ( + Y4 60 ) Y3 )  )
( or ( <= ( + X3 70 ) X5 )  ( <= ( + X5 60 ) X3 )  ( <= ( + Y3 40 ) Y5 )  ( <= ( + Y5 88 ) Y3 )  )
( or ( <= ( + X3 70 ) X6 )  ( <= ( + X6 27 ) X3 )  ( <= ( + Y3 40 ) Y6 )  ( <= ( + Y6 56 ) Y3 )  )
( or ( <= ( + X3 70 ) X7 )  ( <= ( + X7 99 ) X3 )  ( <= ( + Y3 40 ) Y7 )  ( <= ( + Y7 11 ) Y3 )  )
( or ( <= ( + X3 70 ) X8 )  ( <= ( + X8 70 ) X3 )  ( <= ( + Y3 40 ) Y8 )  ( <= ( + Y8 30 ) Y3 )  )
( or ( <= ( + X3 70 ) X9 )  ( <= ( + X9 51 ) X3 )  ( <= ( + Y3 40 ) Y9 )  ( <= ( + Y9 35 ) Y3 )  )
( or ( <= ( + X3 70 ) X10 )  ( <= ( + X10 95 ) X3 )  ( <= ( + Y3 40 ) Y10 )  ( <= ( + Y10 79 ) Y3 )  )
( or ( <= ( + X3 70 ) X11 )  ( <= ( + X11 51 ) X3 )  ( <= ( + Y3 40 ) Y11 )  ( <= ( + Y11 52 ) Y3 )  )
( or ( <= ( + X3 70 ) X12 )  ( <= ( + X12 98 ) X3 )  ( <= ( + Y3 40 ) Y12 )  ( <= ( + Y12 48 ) Y3 )  )
( or ( <= ( + X3 70 ) X13 )  ( <= ( + X13 28 ) X3 )  ( <= ( + Y3 40 ) Y13 )  ( <= ( + Y13 9 ) Y3 )  )
( or ( <= ( + X3 70 ) X14 )  ( <= ( + X14 23 ) X3 )  ( <= ( + Y3 40 ) Y14 )  ( <= ( + Y14 39 ) Y3 )  )
( or ( <= ( + X3 70 ) X15 )  ( <= ( + X15 54 ) X3 )  ( <= ( + Y3 40 ) Y15 )  ( <= ( + Y15 32 ) Y3 )  )
( or ( <= ( + X3 70 ) X16 )  ( <= ( + X16 93 ) X3 )  ( <= ( + Y3 40 ) Y16 )  ( <= ( + Y16 78 ) Y3 )  )
( or ( <= ( + X3 70 ) X17 )  ( <= ( + X17 8 ) X3 )  ( <= ( + Y3 40 ) Y17 )  ( <= ( + Y17 95 ) Y3 )  )
( or ( <= ( + X4 57 ) X5 )  ( <= ( + X5 60 ) X4 )  ( <= ( + Y4 60 ) Y5 )  ( <= ( + Y5 88 ) Y4 )  )
( or ( <= ( + X4 57 ) X6 )  ( <= ( + X6 27 ) X4 )  ( <= ( + Y4 60 ) Y6 )  ( <= ( + Y6 56 ) Y4 )  )
( or ( <= ( + X4 57 ) X7 )  ( <= ( + X7 99 ) X4 )  ( <= ( + Y4 60 ) Y7 )  ( <= ( + Y7 11 ) Y4 )  )
( or ( <= ( + X4 57 ) X8 )  ( <= ( + X8 70 ) X4 )  ( <= ( + Y4 60 ) Y8 )  ( <= ( + Y8 30 ) Y4 )  )
( or ( <= ( + X4 57 ) X9 )  ( <= ( + X9 51 ) X4 )  ( <= ( + Y4 60 ) Y9 )  ( <= ( + Y9 35 ) Y4 )  )
( or ( <= ( + X4 57 ) X10 )  ( <= ( + X10 95 ) X4 )  ( <= ( + Y4 60 ) Y10 )  ( <= ( + Y10 79 ) Y4 )  )
( or ( <= ( + X4 57 ) X11 )  ( <= ( + X11 51 ) X4 )  ( <= ( + Y4 60 ) Y11 )  ( <= ( + Y11 52 ) Y4 )  )
( or ( <= ( + X4 57 ) X12 )  ( <= ( + X12 98 ) X4 )  ( <= ( + Y4 60 ) Y12 )  ( <= ( + Y12 48 ) Y4 )  )
( or ( <= ( + X4 57 ) X13 )  ( <= ( + X13 28 ) X4 )  ( <= ( + Y4 60 ) Y13 )  ( <= ( + Y13 9 ) Y4 )  )
( or ( <= ( + X4 57 ) X14 )  ( <= ( + X14 23 ) X4 )  ( <= ( + Y4 60 ) Y14 )  ( <= ( + Y14 39 ) Y4 )  )
( or ( <= ( + X4 57 ) X15 )  ( <= ( + X15 54 ) X4 )  ( <= ( + Y4 60 ) Y15 )  ( <= ( + Y15 32 ) Y4 )  )
( or ( <= ( + X4 57 ) X16 )  ( <= ( + X16 93 ) X4 )  ( <= ( + Y4 60 ) Y16 )  ( <= ( + Y16 78 ) Y4 )  )
( or ( <= ( + X4 57 ) X17 )  ( <= ( + X17 8 ) X4 )  ( <= ( + Y4 60 ) Y17 )  ( <= ( + Y17 95 ) Y4 )  )
( or ( <= ( + X5 60 ) X6 )  ( <= ( + X6 27 ) X5 )  ( <= ( + Y5 88 ) Y6 )  ( <= ( + Y6 56 ) Y5 )  )
( or ( <= ( + X5 60 ) X7 )  ( <= ( + X7 99 ) X5 )  ( <= ( + Y5 88 ) Y7 )  ( <= ( + Y7 11 ) Y5 )  )
( or ( <= ( + X5 60 ) X8 )  ( <= ( + X8 70 ) X5 )  ( <= ( + Y5 88 ) Y8 )  ( <= ( + Y8 30 ) Y5 )  )
( or ( <= ( + X5 60 ) X9 )  ( <= ( + X9 51 ) X5 )  ( <= ( + Y5 88 ) Y9 )  ( <= ( + Y9 35 ) Y5 )  )
( or ( <= ( + X5 60 ) X10 )  ( <= ( + X10 95 ) X5 )  ( <= ( + Y5 88 ) Y10 )  ( <= ( + Y10 79 ) Y5 )  )
( or ( <= ( + X5 60 ) X11 )  ( <= ( + X11 51 ) X5 )  ( <= ( + Y5 88 ) Y11 )  ( <= ( + Y11 52 ) Y5 )  )
( or ( <= ( + X5 60 ) X12 )  ( <= ( + X12 98 ) X5 )  ( <= ( + Y5 88 ) Y12 )  ( <= ( + Y12 48 ) Y5 )  )
( or ( <= ( + X5 60 ) X13 )  ( <= ( + X13 28 ) X5 )  ( <= ( + Y5 88 ) Y13 )  ( <= ( + Y13 9 ) Y5 )  )
( or ( <= ( + X5 60 ) X14 )  ( <= ( + X14 23 ) X5 )  ( <= ( + Y5 88 ) Y14 )  ( <= ( + Y14 39 ) Y5 )  )
( or ( <= ( + X5 60 ) X15 )  ( <= ( + X15 54 ) X5 )  ( <= ( + Y5 88 ) Y15 )  ( <= ( + Y15 32 ) Y5 )  )
( or ( <= ( + X5 60 ) X16 )  ( <= ( + X16 93 ) X5 )  ( <= ( + Y5 88 ) Y16 )  ( <= ( + Y16 78 ) Y5 )  )
( or ( <= ( + X5 60 ) X17 )  ( <= ( + X17 8 ) X5 )  ( <= ( + Y5 88 ) Y17 )  ( <= ( + Y17 95 ) Y5 )  )
( or ( <= ( + X6 27 ) X7 )  ( <= ( + X7 99 ) X6 )  ( <= ( + Y6 56 ) Y7 )  ( <= ( + Y7 11 ) Y6 )  )
( or ( <= ( + X6 27 ) X8 )  ( <= ( + X8 70 ) X6 )  ( <= ( + Y6 56 ) Y8 )  ( <= ( + Y8 30 ) Y6 )  )
( or ( <= ( + X6 27 ) X9 )  ( <= ( + X9 51 ) X6 )  ( <= ( + Y6 56 ) Y9 )  ( <= ( + Y9 35 ) Y6 )  )
( or ( <= ( + X6 27 ) X10 )  ( <= ( + X10 95 ) X6 )  ( <= ( + Y6 56 ) Y10 )  ( <= ( + Y10 79 ) Y6 )  )
( or ( <= ( + X6 27 ) X11 )  ( <= ( + X11 51 ) X6 )  ( <= ( + Y6 56 ) Y11 )  ( <= ( + Y11 52 ) Y6 )  )
( or ( <= ( + X6 27 ) X12 )  ( <= ( + X12 98 ) X6 )  ( <= ( + Y6 56 ) Y12 )  ( <= ( + Y12 48 ) Y6 )  )
( or ( <= ( + X6 27 ) X13 )  ( <= ( + X13 28 ) X6 )  ( <= ( + Y6 56 ) Y13 )  ( <= ( + Y13 9 ) Y6 )  )
( or ( <= ( + X6 27 ) X14 )  ( <= ( + X14 23 ) X6 )  ( <= ( + Y6 56 ) Y14 )  ( <= ( + Y14 39 ) Y6 )  )
( or ( <= ( + X6 27 ) X15 )  ( <= ( + X15 54 ) X6 )  ( <= ( + Y6 56 ) Y15 )  ( <= ( + Y15 32 ) Y6 )  )
( or ( <= ( + X6 27 ) X16 )  ( <= ( + X16 93 ) X6 )  ( <= ( + Y6 56 ) Y16 )  ( <= ( + Y16 78 ) Y6 )  )
( or ( <= ( + X6 27 ) X17 )  ( <= ( + X17 8 ) X6 )  ( <= ( + Y6 56 ) Y17 )  ( <= ( + Y17 95 ) Y6 )  )
( or ( <= ( + X7 99 ) X8 )  ( <= ( + X8 70 ) X7 )  ( <= ( + Y7 11 ) Y8 )  ( <= ( + Y8 30 ) Y7 )  )
( or ( <= ( + X7 99 ) X9 )  ( <= ( + X9 51 ) X7 )  ( <= ( + Y7 11 ) Y9 )  ( <= ( + Y9 35 ) Y7 )  )
( or ( <= ( + X7 99 ) X10 )  ( <= ( + X10 95 ) X7 )  ( <= ( + Y7 11 ) Y10 )  ( <= ( + Y10 79 ) Y7 )  )
( or ( <= ( + X7 99 ) X11 )  ( <= ( + X11 51 ) X7 )  ( <= ( + Y7 11 ) Y11 )  ( <= ( + Y11 52 ) Y7 )  )
( or ( <= ( + X7 99 ) X12 )  ( <= ( + X12 98 ) X7 )  ( <= ( + Y7 11 ) Y12 )  ( <= ( + Y12 48 ) Y7 )  )
( or ( <= ( + X7 99 ) X13 )  ( <= ( + X13 28 ) X7 )  ( <= ( + Y7 11 ) Y13 )  ( <= ( + Y13 9 ) Y7 )  )
( or ( <= ( + X7 99 ) X14 )  ( <= ( + X14 23 ) X7 )  ( <= ( + Y7 11 ) Y14 )  ( <= ( + Y14 39 ) Y7 )  )
( or ( <= ( + X7 99 ) X15 )  ( <= ( + X15 54 ) X7 )  ( <= ( + Y7 11 ) Y15 )  ( <= ( + Y15 32 ) Y7 )  )
( or ( <= ( + X7 99 ) X16 )  ( <= ( + X16 93 ) X7 )  ( <= ( + Y7 11 ) Y16 )  ( <= ( + Y16 78 ) Y7 )  )
( or ( <= ( + X7 99 ) X17 )  ( <= ( + X17 8 ) X7 )  ( <= ( + Y7 11 ) Y17 )  ( <= ( + Y17 95 ) Y7 )  )
( or ( <= ( + X8 70 ) X9 )  ( <= ( + X9 51 ) X8 )  ( <= ( + Y8 30 ) Y9 )  ( <= ( + Y9 35 ) Y8 )  )
( or ( <= ( + X8 70 ) X10 )  ( <= ( + X10 95 ) X8 )  ( <= ( + Y8 30 ) Y10 )  ( <= ( + Y10 79 ) Y8 )  )
( or ( <= ( + X8 70 ) X11 )  ( <= ( + X11 51 ) X8 )  ( <= ( + Y8 30 ) Y11 )  ( <= ( + Y11 52 ) Y8 )  )
( or ( <= ( + X8 70 ) X12 )  ( <= ( + X12 98 ) X8 )  ( <= ( + Y8 30 ) Y12 )  ( <= ( + Y12 48 ) Y8 )  )
( or ( <= ( + X8 70 ) X13 )  ( <= ( + X13 28 ) X8 )  ( <= ( + Y8 30 ) Y13 )  ( <= ( + Y13 9 ) Y8 )  )
( or ( <= ( + X8 70 ) X14 )  ( <= ( + X14 23 ) X8 )  ( <= ( + Y8 30 ) Y14 )  ( <= ( + Y14 39 ) Y8 )  )
( or ( <= ( + X8 70 ) X15 )  ( <= ( + X15 54 ) X8 )  ( <= ( + Y8 30 ) Y15 )  ( <= ( + Y15 32 ) Y8 )  )
( or ( <= ( + X8 70 ) X16 )  ( <= ( + X16 93 ) X8 )  ( <= ( + Y8 30 ) Y16 )  ( <= ( + Y16 78 ) Y8 )  )
( or ( <= ( + X8 70 ) X17 )  ( <= ( + X17 8 ) X8 )  ( <= ( + Y8 30 ) Y17 )  ( <= ( + Y17 95 ) Y8 )  )
( or ( <= ( + X9 51 ) X10 )  ( <= ( + X10 95 ) X9 )  ( <= ( + Y9 35 ) Y10 )  ( <= ( + Y10 79 ) Y9 )  )
( or ( <= ( + X9 51 ) X11 )  ( <= ( + X11 51 ) X9 )  ( <= ( + Y9 35 ) Y11 )  ( <= ( + Y11 52 ) Y9 )  )
( or ( <= ( + X9 51 ) X12 )  ( <= ( + X12 98 ) X9 )  ( <= ( + Y9 35 ) Y12 )  ( <= ( + Y12 48 ) Y9 )  )
( or ( <= ( + X9 51 ) X13 )  ( <= ( + X13 28 ) X9 )  ( <= ( + Y9 35 ) Y13 )  ( <= ( + Y13 9 ) Y9 )  )
( or ( <= ( + X9 51 ) X14 )  ( <= ( + X14 23 ) X9 )  ( <= ( + Y9 35 ) Y14 )  ( <= ( + Y14 39 ) Y9 )  )
( or ( <= ( + X9 51 ) X15 )  ( <= ( + X15 54 ) X9 )  ( <= ( + Y9 35 ) Y15 )  ( <= ( + Y15 32 ) Y9 )  )
( or ( <= ( + X9 51 ) X16 )  ( <= ( + X16 93 ) X9 )  ( <= ( + Y9 35 ) Y16 )  ( <= ( + Y16 78 ) Y9 )  )
( or ( <= ( + X9 51 ) X17 )  ( <= ( + X17 8 ) X9 )  ( <= ( + Y9 35 ) Y17 )  ( <= ( + Y17 95 ) Y9 )  )
( or ( <= ( + X10 95 ) X11 )  ( <= ( + X11 51 ) X10 )  ( <= ( + Y10 79 ) Y11 )  ( <= ( + Y11 52 ) Y10 )  )
( or ( <= ( + X10 95 ) X12 )  ( <= ( + X12 98 ) X10 )  ( <= ( + Y10 79 ) Y12 )  ( <= ( + Y12 48 ) Y10 )  )
( or ( <= ( + X10 95 ) X13 )  ( <= ( + X13 28 ) X10 )  ( <= ( + Y10 79 ) Y13 )  ( <= ( + Y13 9 ) Y10 )  )
( or ( <= ( + X10 95 ) X14 )  ( <= ( + X14 23 ) X10 )  ( <= ( + Y10 79 ) Y14 )  ( <= ( + Y14 39 ) Y10 )  )
( or ( <= ( + X10 95 ) X15 )  ( <= ( + X15 54 ) X10 )  ( <= ( + Y10 79 ) Y15 )  ( <= ( + Y15 32 ) Y10 )  )
( or ( <= ( + X10 95 ) X16 )  ( <= ( + X16 93 ) X10 )  ( <= ( + Y10 79 ) Y16 )  ( <= ( + Y16 78 ) Y10 )  )
( or ( <= ( + X10 95 ) X17 )  ( <= ( + X17 8 ) X10 )  ( <= ( + Y10 79 ) Y17 )  ( <= ( + Y17 95 ) Y10 )  )
( or ( <= ( + X11 51 ) X12 )  ( <= ( + X12 98 ) X11 )  ( <= ( + Y11 52 ) Y12 )  ( <= ( + Y12 48 ) Y11 )  )
( or ( <= ( + X11 51 ) X13 )  ( <= ( + X13 28 ) X11 )  ( <= ( + Y11 52 ) Y13 )  ( <= ( + Y13 9 ) Y11 )  )
( or ( <= ( + X11 51 ) X14 )  ( <= ( + X14 23 ) X11 )  ( <= ( + Y11 52 ) Y14 )  ( <= ( + Y14 39 ) Y11 )  )
( or ( <= ( + X11 51 ) X15 )  ( <= ( + X15 54 ) X11 )  ( <= ( + Y11 52 ) Y15 )  ( <= ( + Y15 32 ) Y11 )  )
( or ( <= ( + X11 51 ) X16 )  ( <= ( + X16 93 ) X11 )  ( <= ( + Y11 52 ) Y16 )  ( <= ( + Y16 78 ) Y11 )  )
( or ( <= ( + X11 51 ) X17 )  ( <= ( + X17 8 ) X11 )  ( <= ( + Y11 52 ) Y17 )  ( <= ( + Y17 95 ) Y11 )  )
( or ( <= ( + X12 98 ) X13 )  ( <= ( + X13 28 ) X12 )  ( <= ( + Y12 48 ) Y13 )  ( <= ( + Y13 9 ) Y12 )  )
( or ( <= ( + X12 98 ) X14 )  ( <= ( + X14 23 ) X12 )  ( <= ( + Y12 48 ) Y14 )  ( <= ( + Y14 39 ) Y12 )  )
( or ( <= ( + X12 98 ) X15 )  ( <= ( + X15 54 ) X12 )  ( <= ( + Y12 48 ) Y15 )  ( <= ( + Y15 32 ) Y12 )  )
( or ( <= ( + X12 98 ) X16 )  ( <= ( + X16 93 ) X12 )  ( <= ( + Y12 48 ) Y16 )  ( <= ( + Y16 78 ) Y12 )  )
( or ( <= ( + X12 98 ) X17 )  ( <= ( + X17 8 ) X12 )  ( <= ( + Y12 48 ) Y17 )  ( <= ( + Y17 95 ) Y12 )  )
( or ( <= ( + X13 28 ) X14 )  ( <= ( + X14 23 ) X13 )  ( <= ( + Y13 9 ) Y14 )  ( <= ( + Y14 39 ) Y13 )  )
( or ( <= ( + X13 28 ) X15 )  ( <= ( + X15 54 ) X13 )  ( <= ( + Y13 9 ) Y15 )  ( <= ( + Y15 32 ) Y13 )  )
( or ( <= ( + X13 28 ) X16 )  ( <= ( + X16 93 ) X13 )  ( <= ( + Y13 9 ) Y16 )  ( <= ( + Y16 78 ) Y13 )  )
( or ( <= ( + X13 28 ) X17 )  ( <= ( + X17 8 ) X13 )  ( <= ( + Y13 9 ) Y17 )  ( <= ( + Y17 95 ) Y13 )  )
( or ( <= ( + X14 23 ) X15 )  ( <= ( + X15 54 ) X14 )  ( <= ( + Y14 39 ) Y15 )  ( <= ( + Y15 32 ) Y14 )  )
( or ( <= ( + X14 23 ) X16 )  ( <= ( + X16 93 ) X14 )  ( <= ( + Y14 39 ) Y16 )  ( <= ( + Y16 78 ) Y14 )  )
( or ( <= ( + X14 23 ) X17 )  ( <= ( + X17 8 ) X14 )  ( <= ( + Y14 39 ) Y17 )  ( <= ( + Y17 95 ) Y14 )  )
( or ( <= ( + X15 54 ) X16 )  ( <= ( + X16 93 ) X15 )  ( <= ( + Y15 32 ) Y16 )  ( <= ( + Y16 78 ) Y15 )  )
( or ( <= ( + X15 54 ) X17 )  ( <= ( + X17 8 ) X15 )  ( <= ( + Y15 32 ) Y17 )  ( <= ( + Y17 95 ) Y15 )  )
( or ( <= ( + X16 93 ) X17 )  ( <= ( + X17 8 ) X16 )  ( <= ( + Y16 78 ) Y17 )  ( <= ( + Y17 95 ) Y16 )  )
( >= X0 0)
( <= ( + X0 79) Z)
( >= Y0 0)
( <= ( + Y0 77 ) 212)
( >= X1 0)
( <= ( + X1 35) Z)
( >= Y1 0)
( <= ( + Y1 43 ) 212)
( >= X2 0)
( <= ( + X2 85) Z)
( >= Y2 0)
( <= ( + Y2 91 ) 212)
( >= X3 0)
( <= ( + X3 70) Z)
( >= Y3 0)
( <= ( + Y3 40 ) 212)
( >= X4 0)
( <= ( + X4 57) Z)
( >= Y4 0)
( <= ( + Y4 60 ) 212)
( >= X5 0)
( <= ( + X5 60) Z)
( >= Y5 0)
( <= ( + Y5 88 ) 212)
( >= X6 0)
( <= ( + X6 27) Z)
( >= Y6 0)
( <= ( + Y6 56 ) 212)
( >= X7 0)
( <= ( + X7 99) Z)
( >= Y7 0)
( <= ( + Y7 11 ) 212)
( >= X8 0)
( <= ( + X8 70) Z)
( >= Y8 0)
( <= ( + Y8 30 ) 212)
( >= X9 0)
( <= ( + X9 51) Z)
( >= Y9 0)
( <= ( + Y9 35 ) 212)
( >= X10 0)
( <= ( + X10 95) Z)
( >= Y10 0)
( <= ( + Y10 79 ) 212)
( >= X11 0)
( <= ( + X11 51) Z)
( >= Y11 0)
( <= ( + Y11 52 ) 212)
( >= X12 0)
( <= ( + X12 98) Z)
( >= Y12 0)
( <= ( + Y12 48 ) 212)
( >= X13 0)
( <= ( + X13 28) Z)
( >= Y13 0)
( <= ( + Y13 9 ) 212)
( >= X14 0)
( <= ( + X14 23) Z)
( >= Y14 0)
( <= ( + Y14 39 ) 212)
( >= X15 0)
( <= ( + X15 54) Z)
( >= Y15 0)
( <= ( + Y15 32 ) 212)
( >= X16 0)
( <= ( + X16 93) Z)
( >= Y16 0)
( <= ( + Y16 78 ) 212)
( >= X17 0)
( <= ( + X17 8) Z)
( >= Y17 0)
( <= ( + Y17 95 ) 212)
) )
)(=> $phi $goal))))